NAME : CHRVRP
COMMENT : master instance for CHRVRP
EDGE_WEIGHT_TYPE : EUC_2D
NODE_COORD_SECTION
V100 40.769e+03 71.077e+03
V101 5.537e+03 96.579e+03
V102 78.853e+03 0.422e+03
S0 50.837e+03 68.389e+03
S1 66.390e+03 40.535e+03
D10 42.572e+03 88.680e+03
D11 81.458e+03 85.801e+03
D12 73.540e+03 74.926e+03
D13 86.800e+03 87.014e+03
D14 38.338e+03 18.676e+03
D15 97.946e+03 32.557e+03
D16 89.319e+03 37.294e+03
D17 20.972e+03 79.371e+03
D18 74.183e+03 15.106e+03
D19 66.314e+03 16.994e+03
EOF
